p cnf 42 126
a 16 10 0
e 1 2 3 4 5 6 7 8 9 11 12 13 14 15 17 18 19 20 21 22 23 24 25 26 27 28 29 30 31 32 33 34 35 36 37 38 39 40 41 42 0
-3 1 0
-3 -2 0
-1 2 3 0
-4 -2 -5 0
4 2 -5 0
-4 2 5 0
4 -2 5 0
4 -5 -6 0
-4 5 -6 0
4 5 6 0
-4 -5 6 0
8 -6 0
8 7 0
6 -7 -8 0
4 -10 -11 0
-4 10 -11 0
4 10 11 0
-4 -10 11 0
12 -9 0
12 11 0
9 -11 -12 0
4 -13 -14 0
-4 13 -14 0
4 13 14 0
-4 -13 14 0
-15 -12 0
-15 -14 0
12 14 15 0
16 -8 0
16 -15 0
8 15 -16 0
3 -16 -17 0
-3 16 -17 0
3 16 17 0
-3 -16 17 0
14 -18 -19 0
-14 18 -19 0
14 18 19 0
-14 -18 19 0
-5 -9 -20 0
5 9 -20 0
-5 9 20 0
5 -9 20 0
21 -19 0
21 20 0
19 -20 -21 0
-13 4 -22 0
13 -4 -22 0
-13 -4 22 0
13 4 22 0
23 -7 0
23 -12 0
7 12 -23 0
-24 4 0
-24 -2 0
-4 2 24 0
25 -14 0
25 -24 0
14 24 -25 0
23 -25 -26 0
-23 25 -26 0
23 25 26 0
-23 -25 26 0
-22 -26 -27 0
22 26 -27 0
-22 26 27 0
22 -26 27 0
-13 18 -28 0
13 -18 -28 0
-13 -18 28 0
13 18 28 0
29 28 0
29 11 0
-28 -11 -29 0
30 2 -31 0
-30 -2 -31 0
30 -2 31 0
-30 2 31 0
-10 -5 -32 0
10 5 -32 0
-10 5 32 0
10 -5 32 0
31 32 -33 0
-31 -32 -33 0
31 -32 33 0
-31 32 33 0
-29 33 -34 0
29 -33 -34 0
-29 -33 34 0
29 33 34 0
27 -34 -35 0
-27 34 -35 0
27 34 35 0
-27 -34 35 0
-36 -21 0
-36 35 0
21 -35 36 0
-37 17 0
-37 -36 0
-17 36 37 0
39 24 0
39 -6 0
-24 6 -39 0
39 -32 -40 0
-39 32 -40 0
39 32 40 0
-39 -32 40 0
38 40 -41 0
-38 -40 -41 0
38 -40 41 0
-38 40 41 0
42 -37 0
42 -41 0
37 41 -42 0
-33 23 -8 -27 4 11 -30 0
-26 -15 34 42 -37 0
24 -17 39 -7 2 0
21 37 -30 -27 -3 -15 0
24 -26 30 -29 4 22 -13 0
31 -4 26 -32 -11 30 35 6 0
-14 24 -31 0
-3 -27 -42 -31 -8 1 0
-36 -29 -24 1 7 23 0
17 -31 -6 -14 0
2 -42 -31 -39 0
42 0
